100
32
11
23
19
23
24
5
5
32
10
5
10
8
7
20
12
1
10
22
7
7
8
25
18
12
19
17
15
12
18
14
10
2
29
2
27
11
16
5
26
2
21
14
9
1
24
10
9
1
9
16
1
2
1
1
3
3
2
2
4
2
19
3
3
2
17
1
1
2
1
1
1
4
4
1
20
19
3
8
5
4
1
2
2
1
1
18
6
5
2
17
6
1
3
20
1
1
3
1
3
2